c Read 7984 clauses.  2994 variables
c Breaking ties randomly with seed 1
c Placed 7984 terms into 1398 buckets.
c Bucket 69 Reduced to term with 7 nodes
c Bucket 138 Reduced to term with 9 nodes
c Bucket 207 Reduced to term with 7 nodes
c Bucket 276 Reduced to term with 9 nodes
c Bucket 345 Reduced to term with 9 nodes
c Bucket 414 Reduced to term with 11 nodes
c Bucket 483 Reduced to term with 7 nodes
c Bucket 552 Reduced to term with 11 nodes
c Bucket 621 Reduced to term with 7 nodes
c Bucket 690 Reduced to term with 13 nodes
c Bucket 759 Reduced to term with 7 nodes
c Bucket 828 Reduced to term with 15 nodes
c Bucket 897 Reduced to term with 13 nodes
c Bucket 966 Reduced to term with 9 nodes
c Bucket 1035 Reduced to term with 7 nodes
c Bucket 1104 Reduced to term with 11 nodes
c Bucket 1173 Reduced to term with 25 nodes
c Bucket 1242 Reduced to term with 35 nodes
c Bucket 1311 Reduced to term with 11 nodes
c Bucket 1380 Reduced to term with 23 nodes
c Bucket 1449 Reduced to term with 17 nodes
c Bucket 1518 Reduced to term with 65 nodes
c Garbage collection #1: 2000003 nodes / 1939240 free / 44944 previously freed  / 0.0s / 0.0s total
c Bucket 1587 Reduced to term with 887 nodes
c Garbage collection #2: 2000003 nodes / 1862789 free / 38405 previously freed  / 0.0s / 0.0s total
c Bucket 1656 Reduced to term with 9 nodes
c Bucket 1725 Reduced to term with 1183 nodes
c Garbage collection #3: 2000003 nodes / 1790479 free / 38769 previously freed  / 0.0s / 0.1s total
c Garbage collection #4: 2000003 nodes / 1731990 free / 33390 previously freed  / 0.0s / 0.1s total
c Bucket 1863 Reduced to term with 1035 nodes
c Garbage collection #5: 2000003 nodes / 1659975 free / 31782 previously freed  / 0.0s / 0.1s total
c Garbage collection #6: 2000003 nodes / 1592238 free / 34172 previously freed  / 0.0s / 0.1s total
c Bucket 2070 Reduced to term with 565 nodes
c Garbage collection #7: 2000003 nodes / 1531123 free / 34430 previously freed  / 0.0s / 0.2s total
s UNSATISFIABLE

c Cache statistics
c ----------------
c Unique Access:  920181
c Unique Chain:   92096
c Unique Hit:     183554
c Unique Miss:    733044
c => Hit rate =   0.20
c Operator Hits:  1271237
c Operator Miss:  1330763
c => Hit rate =   0.49
c Swap count =    0

c BDD statistics
c ----------------
c Total BDD nodes produced: 733044
c Input variables: 2994
c Input clauses: 7984
c Total clauses: 4807284
c Unused+non-BDD clause IDs: 37969 (0.8%)
c Maximum live clauses: 2093156
c Deleted clauses: 4799300
c Final live clauses: 7984
c Total variables: 736036
c Elapsed seconds: 6.762
-rw-r--r--  1 bryant  staff  269558812 Mar 10 23:08 chew-1000-123456.lrat
c parsed a formula with 2994 variables and 7984 clauses
c VERIFIED
c allocated 1024 10488367 151570
c Added clauses = 4807284.  Deleted clauses = 2899990.  Max live clauses = 2093156
c verification time = 3.02 secs
